instances/knapsack/discrete/knapsack_110_16.lp
\ Model knapsack_110_16
\ LP format - for model browsing. Use MPS format to capture full model detail.
\ Signature: 0x1c7a262dccd0e095
Minimize
  - 83 x[0] - 7 x[1] - 73 x[2] - 9 x[3] - 58 x[4] - 38 x[5] - 22 x[6]
   - 76 x[7] - 7 x[8] - 63 x[9] - 28 x[10] - 28 x[11] - 32 x[12] - 71 x[13]
   - 12 x[14] - 25 x[15] - 23 x[16] - 15 x[17] - 63 x[18] - 14 x[19]
   - 82 x[20] - 8 x[21] - 9 x[22] - 61 x[23] - 70 x[24] - 55 x[25]
   - 5 x[26] - 48 x[27] - 19 x[28] - 9 x[29] - 62 x[30] - 81 x[31]
   - 73 x[32] - 56 x[33] - 8 x[34] - 14 x[35] - 10 x[36] - 56 x[37]
   - 39 x[38] - 28 x[39] - 5 x[40] - 66 x[41] - 6 x[42] - 28 x[43]
   - 11 x[44] - 8 x[45] - 29 x[46] - 21 x[47] - 49 x[48] - 74 x[49]
   - 52 x[50] - 43 x[51] - 24 x[52] - 10 x[53] - 65 x[54] - 23 x[55]
   - 19 x[56] - 33 x[57] - x[58] - 96 x[59] - 45 x[60] - 23 x[61] - 2 x[62]
   - 98 x[63] - 43 x[64] - 10 x[65] - 18 x[66] - 38 x[67] - 61 x[68]
   - 90 x[69] - 18 x[70] - 28 x[71] - 18 x[72] - 78 x[73] - 87 x[74]
   - 55 x[75] - 99 x[76] - 30 x[77] - 69 x[78] - 96 x[79] - 16 x[80]
   - 19 x[81] - 42 x[82] - 95 x[83] - 10 x[84] - 81 x[85] - 87 x[86]
   - 96 x[87] - 77 x[88] - 19 x[89] - 27 x[90] - 26 x[91] - 94 x[92]
   - 37 x[93] - 9 x[94] - 79 x[95] - 6 x[96] - 97 x[97] - 25 x[98]
   - 73 x[99] - 41 x[100] - 6 x[101] - 83 x[102] - 66 x[103] - 72 x[104]
   - 76 x[105] - 19 x[106] - 13 x[107] - 39 x[108] - 85 x[109]
Subject To
 primal_upper: 50 x[0] + 63 x[1] + 73 x[2] + 6 x[3] + 79 x[4] + 92 x[5]
   + 40 x[6] + 50 x[7] + 20 x[8] + 65 x[9] + 2 x[10] + 6 x[11] + 19 x[12]
   + 39 x[13] + 95 x[14] + 83 x[15] + 88 x[16] + 7 x[17] + 76 x[18]
   + 81 x[19] + 32 x[20] + 6 x[21] + 27 x[22] + 97 x[23] + 7 x[24]
   + 59 x[25] + 65 x[26] + 98 x[27] + 24 x[28] + 34 x[29] + 4 x[30]
   + 90 x[31] + 2 x[32] + 44 x[33] + 39 x[34] + 88 x[35] + 19 x[36]
   + 39 x[37] + 63 x[38] + 57 x[39] + 6 x[40] + 100 x[41] + 49 x[42]
   + 68 x[43] + 94 x[44] + 85 x[45] + 60 x[46] + 24 x[47] + 62 x[48]
   + 95 x[49] + 21 x[50] + 11 x[51] + 100 x[52] + 43 x[53] + 11 x[54]
   + 58 x[55] + 72 x[56] + 97 x[57] + 63 x[58] + 5 x[59] + 71 x[60] + x[61]
   + 50 x[62] + 49 x[63] + 54 x[64] + 47 x[65] + 15 x[66] + 9 x[67]
   + 7 x[68] + 100 x[69] + 68 x[70] + 76 x[71] + 85 x[72] + 14 x[73]
   + 82 x[74] + 39 x[75] + 49 x[76] + 94 x[77] + 79 x[78] + 25 x[79]
   + 100 x[80] + 88 x[81] + x[82] + 32 x[83] + 80 x[84] + 36 x[85]
   + 26 x[86] + 27 x[87] + 53 x[88] + 2 x[89] + 11 x[90] + 35 x[91]
   + 91 x[92] + 90 x[93] + 55 x[94] + 36 x[95] + 80 x[96] + 83 x[97]
   + 15 x[98] + 63 x[99] + 52 x[100] + 59 x[101] + 57 x[102] + 39 x[103]
   + 52 x[104] + 25 x[105] + 90 x[106] + 41 x[107] + 33 x[108] + 92 x[109]
   + 5 r[0] + 6.3 r[1] + 7.3 r[2] + 0.6 r[3] + 7.9 r[4] + 9.2 r[5] + 4 r[6]
   + 5 r[7] + 2 r[8] + 6.5 r[9] + 0.2 r[10] + 0.6 r[11] + 1.9 r[12]
   + 3.9 r[13] + 9.5 r[14] + 8.3 r[15] + 8.8 r[16] + 0.7 r[17] + 7.6 r[18]
   + 8.1 r[19] + 3.2 r[20] + 0.6 r[21] + 2.7 r[22] + 9.7 r[23] + 0.7 r[24]
   + 5.9 r[25] + 6.5 r[26] + 9.8 r[27] + 2.4 r[28] + 3.4 r[29] + 0.4 r[30]
   + 9 r[31] + 0.2 r[32] + 4.4 r[33] + 3.9 r[34] + 8.8 r[35] + 1.9 r[36]
   + 3.9 r[37] + 6.3 r[38] + 5.7 r[39] + 0.6 r[40] + 10 r[41] + 4.9 r[42]
   + 6.8 r[43] + 9.4 r[44] + 8.5 r[45] + 6 r[46] + 2.4 r[47] + 6.2 r[48]
   + 9.5 r[49] + 2.1 r[50] + 1.1 r[51] + 10 r[52] + 4.3 r[53] + 1.1 r[54]
   + 5.8 r[55] + 7.2 r[56] + 9.7 r[57] + 6.3 r[58] + 0.5 r[59] + 7.1 r[60]
   + 0.1 r[61] + 5 r[62] + 4.9 r[63] + 5.4 r[64] + 4.7 r[65] + 1.5 r[66]
   + 0.9 r[67] + 0.7 r[68] + 10 r[69] + 6.8 r[70] + 7.6 r[71] + 8.5 r[72]
   + 1.4 r[73] + 8.2 r[74] + 3.9 r[75] + 4.9 r[76] + 9.4 r[77] + 7.9 r[78]
   + 2.5 r[79] + 10 r[80] + 8.8 r[81] + 0.1 r[82] + 3.2 r[83] + 8 r[84]
   + 3.6 r[85] + 2.6 r[86] + 2.7 r[87] + 5.3 r[88] + 0.2 r[89] + 1.1 r[90]
   + 3.5 r[91] + 9.1 r[92] + 9 r[93] + 5.5 r[94] + 3.6 r[95] + 8 r[96]
   + 8.3 r[97] + 1.5 r[98] + 6.3 r[99] + 5.2 r[100] + 5.9 r[101]
   + 5.7 r[102] + 3.9 r[103] + 5.2 r[104] + 2.5 r[105] + 9 r[106]
   + 4.1 r[107] + 3.3 r[108] + 9.2 r[109] <= 534
 primal_lower: 3.872109025076533 x[0] + 1.969908023691566 x[1]
   + 3.854213072927504 x[2] + 3.917067633545132 x[3]
   + 1.450370162044578 x[4] + 1.243275888610804 x[5]
   + 2.000614601145735 x[6] + 0.4480942076690985 x[7]
   + 4.481120229555576 x[8] + 1.825378136308721 x[9]
   + 2.38783468506836 x[10] + 4.214460027164427 x[11]
   + 3.204100917014142 x[12] + 2.371874855051662 x[13]
   + 4.318728743097359 x[14] + 4.452762961528405 x[15]
   + 4.144844649872118 x[16] + 0.2436376998373839 x[17]
   + 0.8809056889204886 x[18] + 2.313774622883775 x[19]
   + 2.189806169087278 x[20] + 0.5661899984419083 x[21]
   + 2.341454886190586 x[22] + 4.46542521812326 x[23]
   + 2.637306070349821 x[24] + 0.8961437507829029 x[25]
   + 4.169151342241733 x[26] + 4.329589111577063 x[27]
   + 2.593362034900077 x[28] + 3.557702917733148 x[29]
   + 4.321995910128197 x[30] + 4.910537802052763 x[31]
   + 3.797776731145662 x[32] + 3.763499392252595 x[33]
   + 0.3093646034918432 x[34] + 1.459558368187938 x[35]
   + 0.5868833616999882 x[36] + 0.9583082305914691 x[37]
   + 4.044182486929259 x[38] + 3.089036760416519 x[39]
   + 0.8483230470416471 x[40] + 0.9100828973139581 x[41]
   + 3.997743680661199 x[42] + 4.658778682336703 x[43]
   + 4.05603085859971 x[44] + 0.1053606849784064 x[45]
   + 4.588145880101617 x[46] + 3.086071843091099 x[47]
   + 3.447511708261371 x[48] + 1.231549925918854 x[49]
   + 1.020440394195793 x[50] + 1.204581037415127 x[51]
   + 1.880329277736117 x[52] + 2.989664415059479 x[53]
   + 0.195039804809839 x[54] + 4.715037514959342 x[55]
   + 4.038905301206814 x[56] + 3.016545680169348 x[57]
   + 0.7653502966341452 x[58] + 3.733578287083338 x[59]
   + 2.22469589209352 x[60] + 3.972941395812348 x[61]
   + 3.868908876993711 x[62] + 2.693240855349045 x[63]
   + 1.26067096175656 x[64] + 2.760487983899269 x[65]
   + 2.578984499878413 x[66] + 0.0673351051952467 x[67]
   + 3.53772417688168 x[68] + 0.965534509551131 x[69]
   + 2.558500847892272 x[70] + 4.615280429396043 x[71]
   + 0.0953840619231543 x[72] + 2.542435360239262 x[73]
   + 0.141633860762965 x[74] + 0.4589099918236373 x[75]
   + 4.867678394803181 x[76] + 3.714013670006171 x[77]
   + 0.588705140666117 x[78] + 1.382511644445024 x[79]
   + 2.15834499818135 x[80] + 0.0386791245826917 x[81]
   + 1.600071091466775 x[82] + 2.354472636750656 x[83]
   + 0.2396231545225822 x[84] + 3.029515510908737 x[85]
   + 4.921577764929439 x[86] + 3.79913589968564 x[87]
   + 3.783151331294369 x[88] + 0.6136538736327234 x[89]
   + 3.477311873442094 x[90] + 3.628891456594607 x[91]
   + 3.074474344143885 x[92] + 1.108105072854298 x[93]
   + 2.891811005695673 x[94] + 1.398163585333074 x[95]
   + 1.936487204975923 x[96] + 3.412164121241262 x[97]
   + 2.387067910341759 x[98] + 0.0672550493691942 x[99]
   + 0.4229936422800616 x[100] + 3.553514402010681 x[101]
   + 3.116089422640405 x[102] + 3.289337527148442 x[103]
   + 2.586846019973057 x[104] + 1.559612291614573 x[105]
   + 3.018849848680716 x[106] + 2.273482285909548 x[107]
   + 4.319950190749283 x[108] + 3.964796383851555 x[109] + 12 u[0]
   + 12 u[1] + 90 u[2] + 55 u[3] + 92 u[4] + 94 u[5] + 45 u[6] + 32 u[7]
   + 53 u[8] + 94 u[9] + 32 u[10] + 43 u[11] + 36 u[12] + 48 u[13]
   + 41 u[14] + 57 u[15] + 61 u[16] + 8 u[17] + 97 u[18] + 62 u[19]
   + 61 u[20] + 84 u[21] + 88 u[22] + 31 u[23] + 49 u[24] + 52 u[25]
   + 90 u[26] + 96 u[27] + 82 u[28] + 27 u[29] + 62 u[30] + 16 u[31]
   + 96 u[32] + 69 u[33] + 100 u[34] + 85 u[35] + 56 u[36] + 5 u[37]
   + 68 u[38] + 35 u[39] + 47 u[40] + 94 u[41] + 74 u[42] + 74 u[43]
   + 59 u[44] + 83 u[45] + 2 u[46] + 22 u[47] + 63 u[48] + 8 u[49]
   + 71 u[50] + 76 u[51] + u[52] + 84 u[53] + 73 u[54] + 36 u[55]
   + 25 u[56] + 27 u[57] + 96 u[58] + 90 u[59] + 81 u[60] + 19 u[61]
   + 12 u[62] + 63 u[63] + 8 u[64] + 12 u[65] + 89 u[66] + 39 u[67]
   + 48 u[68] + 86 u[69] + 70 u[70] + 86 u[71] + 34 u[72] + 79 u[73]
   + 20 u[74] + 41 u[75] + 31 u[76] + 95 u[77] + 37 u[78] + 55 u[79]
   + 10 u[80] + 6 u[81] + 91 u[82] + 42 u[83] + 18 u[84] + 46 u[85]
   + 48 u[86] + 36 u[87] + 10 u[88] + 59 u[89] + 69 u[90] + u[91] + 9 u[92]
   + 40 u[93] + 100 u[94] + 29 u[95] + 9 u[96] + 69 u[97] + 80 u[98]
   + 60 u[99] + 17 u[100] + 36 u[101] + 42 u[102] + 60 u[103] + 61 u[104]
   + 30 u[105] + 51 u[106] + 79 u[107] + 59 u[108] + u[109] <= 46154
 mccormick1[0]: - u[0] + r[0] <= 0
 mccormick1[1]: - u[1] + r[1] <= 0
 mccormick1[2]: - u[2] + r[2] <= 0
 mccormick1[3]: - u[3] + r[3] <= 0
 mccormick1[4]: - u[4] + r[4] <= 0
 mccormick1[5]: - u[5] + r[5] <= 0
 mccormick1[6]: - u[6] + r[6] <= 0
 mccormick1[7]: - u[7] + r[7] <= 0
 mccormick1[8]: - u[8] + r[8] <= 0
 mccormick1[9]: - u[9] + r[9] <= 0
 mccormick1[10]: - u[10] + r[10] <= 0
 mccormick1[11]: - u[11] + r[11] <= 0
 mccormick1[12]: - u[12] + r[12] <= 0
 mccormick1[13]: - u[13] + r[13] <= 0
 mccormick1[14]: - u[14] + r[14] <= 0
 mccormick1[15]: - u[15] + r[15] <= 0
 mccormick1[16]: - u[16] + r[16] <= 0
 mccormick1[17]: - u[17] + r[17] <= 0
 mccormick1[18]: - u[18] + r[18] <= 0
 mccormick1[19]: - u[19] + r[19] <= 0
 mccormick1[20]: - u[20] + r[20] <= 0
 mccormick1[21]: - u[21] + r[21] <= 0
 mccormick1[22]: - u[22] + r[22] <= 0
 mccormick1[23]: - u[23] + r[23] <= 0
 mccormick1[24]: - u[24] + r[24] <= 0
 mccormick1[25]: - u[25] + r[25] <= 0
 mccormick1[26]: - u[26] + r[26] <= 0
 mccormick1[27]: - u[27] + r[27] <= 0
 mccormick1[28]: - u[28] + r[28] <= 0
 mccormick1[29]: - u[29] + r[29] <= 0
 mccormick1[30]: - u[30] + r[30] <= 0
 mccormick1[31]: - u[31] + r[31] <= 0
 mccormick1[32]: - u[32] + r[32] <= 0
 mccormick1[33]: - u[33] + r[33] <= 0
 mccormick1[34]: - u[34] + r[34] <= 0
 mccormick1[35]: - u[35] + r[35] <= 0
 mccormick1[36]: - u[36] + r[36] <= 0
 mccormick1[37]: - u[37] + r[37] <= 0
 mccormick1[38]: - u[38] + r[38] <= 0
 mccormick1[39]: - u[39] + r[39] <= 0
 mccormick1[40]: - u[40] + r[40] <= 0
 mccormick1[41]: - u[41] + r[41] <= 0
 mccormick1[42]: - u[42] + r[42] <= 0
 mccormick1[43]: - u[43] + r[43] <= 0
 mccormick1[44]: - u[44] + r[44] <= 0
 mccormick1[45]: - u[45] + r[45] <= 0
 mccormick1[46]: - u[46] + r[46] <= 0
 mccormick1[47]: - u[47] + r[47] <= 0
 mccormick1[48]: - u[48] + r[48] <= 0
 mccormick1[49]: - u[49] + r[49] <= 0
 mccormick1[50]: - u[50] + r[50] <= 0
 mccormick1[51]: - u[51] + r[51] <= 0
 mccormick1[52]: - u[52] + r[52] <= 0
 mccormick1[53]: - u[53] + r[53] <= 0
 mccormick1[54]: - u[54] + r[54] <= 0
 mccormick1[55]: - u[55] + r[55] <= 0
 mccormick1[56]: - u[56] + r[56] <= 0
 mccormick1[57]: - u[57] + r[57] <= 0
 mccormick1[58]: - u[58] + r[58] <= 0
 mccormick1[59]: - u[59] + r[59] <= 0
 mccormick1[60]: - u[60] + r[60] <= 0
 mccormick1[61]: - u[61] + r[61] <= 0
 mccormick1[62]: - u[62] + r[62] <= 0
 mccormick1[63]: - u[63] + r[63] <= 0
 mccormick1[64]: - u[64] + r[64] <= 0
 mccormick1[65]: - u[65] + r[65] <= 0
 mccormick1[66]: - u[66] + r[66] <= 0
 mccormick1[67]: - u[67] + r[67] <= 0
 mccormick1[68]: - u[68] + r[68] <= 0
 mccormick1[69]: - u[69] + r[69] <= 0
 mccormick1[70]: - u[70] + r[70] <= 0
 mccormick1[71]: - u[71] + r[71] <= 0
 mccormick1[72]: - u[72] + r[72] <= 0
 mccormick1[73]: - u[73] + r[73] <= 0
 mccormick1[74]: - u[74] + r[74] <= 0
 mccormick1[75]: - u[75] + r[75] <= 0
 mccormick1[76]: - u[76] + r[76] <= 0
 mccormick1[77]: - u[77] + r[77] <= 0
 mccormick1[78]: - u[78] + r[78] <= 0
 mccormick1[79]: - u[79] + r[79] <= 0
 mccormick1[80]: - u[80] + r[80] <= 0
 mccormick1[81]: - u[81] + r[81] <= 0
 mccormick1[82]: - u[82] + r[82] <= 0
 mccormick1[83]: - u[83] + r[83] <= 0
 mccormick1[84]: - u[84] + r[84] <= 0
 mccormick1[85]: - u[85] + r[85] <= 0
 mccormick1[86]: - u[86] + r[86] <= 0
 mccormick1[87]: - u[87] + r[87] <= 0
 mccormick1[88]: - u[88] + r[88] <= 0
 mccormick1[89]: - u[89] + r[89] <= 0
 mccormick1[90]: - u[90] + r[90] <= 0
 mccormick1[91]: - u[91] + r[91] <= 0
 mccormick1[92]: - u[92] + r[92] <= 0
 mccormick1[93]: - u[93] + r[93] <= 0
 mccormick1[94]: - u[94] + r[94] <= 0
 mccormick1[95]: - u[95] + r[95] <= 0
 mccormick1[96]: - u[96] + r[96] <= 0
 mccormick1[97]: - u[97] + r[97] <= 0
 mccormick1[98]: - u[98] + r[98] <= 0
 mccormick1[99]: - u[99] + r[99] <= 0
 mccormick1[100]: - u[100] + r[100] <= 0
 mccormick1[101]: - u[101] + r[101] <= 0
 mccormick1[102]: - u[102] + r[102] <= 0
 mccormick1[103]: - u[103] + r[103] <= 0
 mccormick1[104]: - u[104] + r[104] <= 0
 mccormick1[105]: - u[105] + r[105] <= 0
 mccormick1[106]: - u[106] + r[106] <= 0
 mccormick1[107]: - u[107] + r[107] <= 0
 mccormick1[108]: - u[108] + r[108] <= 0
 mccormick1[109]: - u[109] + r[109] <= 0
 mccormick2[0]: - x[0] + r[0] <= 0
 mccormick2[1]: - x[1] + r[1] <= 0
 mccormick2[2]: - x[2] + r[2] <= 0
 mccormick2[3]: - x[3] + r[3] <= 0
 mccormick2[4]: - x[4] + r[4] <= 0
 mccormick2[5]: - x[5] + r[5] <= 0
 mccormick2[6]: - x[6] + r[6] <= 0
 mccormick2[7]: - x[7] + r[7] <= 0
 mccormick2[8]: - x[8] + r[8] <= 0
 mccormick2[9]: - x[9] + r[9] <= 0
 mccormick2[10]: - x[10] + r[10] <= 0
 mccormick2[11]: - x[11] + r[11] <= 0
 mccormick2[12]: - x[12] + r[12] <= 0
 mccormick2[13]: - x[13] + r[13] <= 0
 mccormick2[14]: - x[14] + r[14] <= 0
 mccormick2[15]: - x[15] + r[15] <= 0
 mccormick2[16]: - x[16] + r[16] <= 0
 mccormick2[17]: - x[17] + r[17] <= 0
 mccormick2[18]: - x[18] + r[18] <= 0
 mccormick2[19]: - x[19] + r[19] <= 0
 mccormick2[20]: - x[20] + r[20] <= 0
 mccormick2[21]: - x[21] + r[21] <= 0
 mccormick2[22]: - x[22] + r[22] <= 0
 mccormick2[23]: - x[23] + r[23] <= 0
 mccormick2[24]: - x[24] + r[24] <= 0
 mccormick2[25]: - x[25] + r[25] <= 0
 mccormick2[26]: - x[26] + r[26] <= 0
 mccormick2[27]: - x[27] + r[27] <= 0
 mccormick2[28]: - x[28] + r[28] <= 0
 mccormick2[29]: - x[29] + r[29] <= 0
 mccormick2[30]: - x[30] + r[30] <= 0
 mccormick2[31]: - x[31] + r[31] <= 0
 mccormick2[32]: - x[32] + r[32] <= 0
 mccormick2[33]: - x[33] + r[33] <= 0
 mccormick2[34]: - x[34] + r[34] <= 0
 mccormick2[35]: - x[35] + r[35] <= 0
 mccormick2[36]: - x[36] + r[36] <= 0
 mccormick2[37]: - x[37] + r[37] <= 0
 mccormick2[38]: - x[38] + r[38] <= 0
 mccormick2[39]: - x[39] + r[39] <= 0
 mccormick2[40]: - x[40] + r[40] <= 0
 mccormick2[41]: - x[41] + r[41] <= 0
 mccormick2[42]: - x[42] + r[42] <= 0
 mccormick2[43]: - x[43] + r[43] <= 0
 mccormick2[44]: - x[44] + r[44] <= 0
 mccormick2[45]: - x[45] + r[45] <= 0
 mccormick2[46]: - x[46] + r[46] <= 0
 mccormick2[47]: - x[47] + r[47] <= 0
 mccormick2[48]: - x[48] + r[48] <= 0
 mccormick2[49]: - x[49] + r[49] <= 0
 mccormick2[50]: - x[50] + r[50] <= 0
 mccormick2[51]: - x[51] + r[51] <= 0
 mccormick2[52]: - x[52] + r[52] <= 0
 mccormick2[53]: - x[53] + r[53] <= 0
 mccormick2[54]: - x[54] + r[54] <= 0
 mccormick2[55]: - x[55] + r[55] <= 0
 mccormick2[56]: - x[56] + r[56] <= 0
 mccormick2[57]: - x[57] + r[57] <= 0
 mccormick2[58]: - x[58] + r[58] <= 0
 mccormick2[59]: - x[59] + r[59] <= 0
 mccormick2[60]: - x[60] + r[60] <= 0
 mccormick2[61]: - x[61] + r[61] <= 0
 mccormick2[62]: - x[62] + r[62] <= 0
 mccormick2[63]: - x[63] + r[63] <= 0
 mccormick2[64]: - x[64] + r[64] <= 0
 mccormick2[65]: - x[65] + r[65] <= 0
 mccormick2[66]: - x[66] + r[66] <= 0
 mccormick2[67]: - x[67] + r[67] <= 0
 mccormick2[68]: - x[68] + r[68] <= 0
 mccormick2[69]: - x[69] + r[69] <= 0
 mccormick2[70]: - x[70] + r[70] <= 0
 mccormick2[71]: - x[71] + r[71] <= 0
 mccormick2[72]: - x[72] + r[72] <= 0
 mccormick2[73]: - x[73] + r[73] <= 0
 mccormick2[74]: - x[74] + r[74] <= 0
 mccormick2[75]: - x[75] + r[75] <= 0
 mccormick2[76]: - x[76] + r[76] <= 0
 mccormick2[77]: - x[77] + r[77] <= 0
 mccormick2[78]: - x[78] + r[78] <= 0
 mccormick2[79]: - x[79] + r[79] <= 0
 mccormick2[80]: - x[80] + r[80] <= 0
 mccormick2[81]: - x[81] + r[81] <= 0
 mccormick2[82]: - x[82] + r[82] <= 0
 mccormick2[83]: - x[83] + r[83] <= 0
 mccormick2[84]: - x[84] + r[84] <= 0
 mccormick2[85]: - x[85] + r[85] <= 0
 mccormick2[86]: - x[86] + r[86] <= 0
 mccormick2[87]: - x[87] + r[87] <= 0
 mccormick2[88]: - x[88] + r[88] <= 0
 mccormick2[89]: - x[89] + r[89] <= 0
 mccormick2[90]: - x[90] + r[90] <= 0
 mccormick2[91]: - x[91] + r[91] <= 0
 mccormick2[92]: - x[92] + r[92] <= 0
 mccormick2[93]: - x[93] + r[93] <= 0
 mccormick2[94]: - x[94] + r[94] <= 0
 mccormick2[95]: - x[95] + r[95] <= 0
 mccormick2[96]: - x[96] + r[96] <= 0
 mccormick2[97]: - x[97] + r[97] <= 0
 mccormick2[98]: - x[98] + r[98] <= 0
 mccormick2[99]: - x[99] + r[99] <= 0
 mccormick2[100]: - x[100] + r[100] <= 0
 mccormick2[101]: - x[101] + r[101] <= 0
 mccormick2[102]: - x[102] + r[102] <= 0
 mccormick2[103]: - x[103] + r[103] <= 0
 mccormick2[104]: - x[104] + r[104] <= 0
 mccormick2[105]: - x[105] + r[105] <= 0
 mccormick2[106]: - x[106] + r[106] <= 0
 mccormick2[107]: - x[107] + r[107] <= 0
 mccormick2[108]: - x[108] + r[108] <= 0
 mccormick2[109]: - x[109] + r[109] <= 0
 mccormick3[0]: x[0] + u[0] - r[0] <= 1
 mccormick3[1]: x[1] + u[1] - r[1] <= 1
 mccormick3[2]: x[2] + u[2] - r[2] <= 1
 mccormick3[3]: x[3] + u[3] - r[3] <= 1
 mccormick3[4]: x[4] + u[4] - r[4] <= 1
 mccormick3[5]: x[5] + u[5] - r[5] <= 1
 mccormick3[6]: x[6] + u[6] - r[6] <= 1
 mccormick3[7]: x[7] + u[7] - r[7] <= 1
 mccormick3[8]: x[8] + u[8] - r[8] <= 1
 mccormick3[9]: x[9] + u[9] - r[9] <= 1
 mccormick3[10]: x[10] + u[10] - r[10] <= 1
 mccormick3[11]: x[11] + u[11] - r[11] <= 1
 mccormick3[12]: x[12] + u[12] - r[12] <= 1
 mccormick3[13]: x[13] + u[13] - r[13] <= 1
 mccormick3[14]: x[14] + u[14] - r[14] <= 1
 mccormick3[15]: x[15] + u[15] - r[15] <= 1
 mccormick3[16]: x[16] + u[16] - r[16] <= 1
 mccormick3[17]: x[17] + u[17] - r[17] <= 1
 mccormick3[18]: x[18] + u[18] - r[18] <= 1
 mccormick3[19]: x[19] + u[19] - r[19] <= 1
 mccormick3[20]: x[20] + u[20] - r[20] <= 1
 mccormick3[21]: x[21] + u[21] - r[21] <= 1
 mccormick3[22]: x[22] + u[22] - r[22] <= 1
 mccormick3[23]: x[23] + u[23] - r[23] <= 1
 mccormick3[24]: x[24] + u[24] - r[24] <= 1
 mccormick3[25]: x[25] + u[25] - r[25] <= 1
 mccormick3[26]: x[26] + u[26] - r[26] <= 1
 mccormick3[27]: x[27] + u[27] - r[27] <= 1
 mccormick3[28]: x[28] + u[28] - r[28] <= 1
 mccormick3[29]: x[29] + u[29] - r[29] <= 1
 mccormick3[30]: x[30] + u[30] - r[30] <= 1
 mccormick3[31]: x[31] + u[31] - r[31] <= 1
 mccormick3[32]: x[32] + u[32] - r[32] <= 1
 mccormick3[33]: x[33] + u[33] - r[33] <= 1
 mccormick3[34]: x[34] + u[34] - r[34] <= 1
 mccormick3[35]: x[35] + u[35] - r[35] <= 1
 mccormick3[36]: x[36] + u[36] - r[36] <= 1
 mccormick3[37]: x[37] + u[37] - r[37] <= 1
 mccormick3[38]: x[38] + u[38] - r[38] <= 1
 mccormick3[39]: x[39] + u[39] - r[39] <= 1
 mccormick3[40]: x[40] + u[40] - r[40] <= 1
 mccormick3[41]: x[41] + u[41] - r[41] <= 1
 mccormick3[42]: x[42] + u[42] - r[42] <= 1
 mccormick3[43]: x[43] + u[43] - r[43] <= 1
 mccormick3[44]: x[44] + u[44] - r[44] <= 1
 mccormick3[45]: x[45] + u[45] - r[45] <= 1
 mccormick3[46]: x[46] + u[46] - r[46] <= 1
 mccormick3[47]: x[47] + u[47] - r[47] <= 1
 mccormick3[48]: x[48] + u[48] - r[48] <= 1
 mccormick3[49]: x[49] + u[49] - r[49] <= 1
 mccormick3[50]: x[50] + u[50] - r[50] <= 1
 mccormick3[51]: x[51] + u[51] - r[51] <= 1
 mccormick3[52]: x[52] + u[52] - r[52] <= 1
 mccormick3[53]: x[53] + u[53] - r[53] <= 1
 mccormick3[54]: x[54] + u[54] - r[54] <= 1
 mccormick3[55]: x[55] + u[55] - r[55] <= 1
 mccormick3[56]: x[56] + u[56] - r[56] <= 1
 mccormick3[57]: x[57] + u[57] - r[57] <= 1
 mccormick3[58]: x[58] + u[58] - r[58] <= 1
 mccormick3[59]: x[59] + u[59] - r[59] <= 1
 mccormick3[60]: x[60] + u[60] - r[60] <= 1
 mccormick3[61]: x[61] + u[61] - r[61] <= 1
 mccormick3[62]: x[62] + u[62] - r[62] <= 1
 mccormick3[63]: x[63] + u[63] - r[63] <= 1
 mccormick3[64]: x[64] + u[64] - r[64] <= 1
 mccormick3[65]: x[65] + u[65] - r[65] <= 1
 mccormick3[66]: x[66] + u[66] - r[66] <= 1
 mccormick3[67]: x[67] + u[67] - r[67] <= 1
 mccormick3[68]: x[68] + u[68] - r[68] <= 1
 mccormick3[69]: x[69] + u[69] - r[69] <= 1
 mccormick3[70]: x[70] + u[70] - r[70] <= 1
 mccormick3[71]: x[71] + u[71] - r[71] <= 1
 mccormick3[72]: x[72] + u[72] - r[72] <= 1
 mccormick3[73]: x[73] + u[73] - r[73] <= 1
 mccormick3[74]: x[74] + u[74] - r[74] <= 1
 mccormick3[75]: x[75] + u[75] - r[75] <= 1
 mccormick3[76]: x[76] + u[76] - r[76] <= 1
 mccormick3[77]: x[77] + u[77] - r[77] <= 1
 mccormick3[78]: x[78] + u[78] - r[78] <= 1
 mccormick3[79]: x[79] + u[79] - r[79] <= 1
 mccormick3[80]: x[80] + u[80] - r[80] <= 1
 mccormick3[81]: x[81] + u[81] - r[81] <= 1
 mccormick3[82]: x[82] + u[82] - r[82] <= 1
 mccormick3[83]: x[83] + u[83] - r[83] <= 1
 mccormick3[84]: x[84] + u[84] - r[84] <= 1
 mccormick3[85]: x[85] + u[85] - r[85] <= 1
 mccormick3[86]: x[86] + u[86] - r[86] <= 1
 mccormick3[87]: x[87] + u[87] - r[87] <= 1
 mccormick3[88]: x[88] + u[88] - r[88] <= 1
 mccormick3[89]: x[89] + u[89] - r[89] <= 1
 mccormick3[90]: x[90] + u[90] - r[90] <= 1
 mccormick3[91]: x[91] + u[91] - r[91] <= 1
 mccormick3[92]: x[92] + u[92] - r[92] <= 1
 mccormick3[93]: x[93] + u[93] - r[93] <= 1
 mccormick3[94]: x[94] + u[94] - r[94] <= 1
 mccormick3[95]: x[95] + u[95] - r[95] <= 1
 mccormick3[96]: x[96] + u[96] - r[96] <= 1
 mccormick3[97]: x[97] + u[97] - r[97] <= 1
 mccormick3[98]: x[98] + u[98] - r[98] <= 1
 mccormick3[99]: x[99] + u[99] - r[99] <= 1
 mccormick3[100]: x[100] + u[100] - r[100] <= 1
 mccormick3[101]: x[101] + u[101] - r[101] <= 1
 mccormick3[102]: x[102] + u[102] - r[102] <= 1
 mccormick3[103]: x[103] + u[103] - r[103] <= 1
 mccormick3[104]: x[104] + u[104] - r[104] <= 1
 mccormick3[105]: x[105] + u[105] - r[105] <= 1
 mccormick3[106]: x[106] + u[106] - r[106] <= 1
 mccormick3[107]: x[107] + u[107] - r[107] <= 1
 mccormick3[108]: x[108] + u[108] - r[108] <= 1
 mccormick3[109]: x[109] + u[109] - r[109] <= 1
Bounds
Binaries
 x[0] x[1] x[2] x[3] x[4] x[5] x[6] x[7] x[8] x[9] x[10] x[11] x[12] x[13]
 x[14] x[15] x[16] x[17] x[18] x[19] x[20] x[21] x[22] x[23] x[24] x[25]
 x[26] x[27] x[28] x[29] x[30] x[31] x[32] x[33] x[34] x[35] x[36] x[37]
 x[38] x[39] x[40] x[41] x[42] x[43] x[44] x[45] x[46] x[47] x[48] x[49]
 x[50] x[51] x[52] x[53] x[54] x[55] x[56] x[57] x[58] x[59] x[60] x[61]
 x[62] x[63] x[64] x[65] x[66] x[67] x[68] x[69] x[70] x[71] x[72] x[73]
 x[74] x[75] x[76] x[77] x[78] x[79] x[80] x[81] x[82] x[83] x[84] x[85]
 x[86] x[87] x[88] x[89] x[90] x[91] x[92] x[93] x[94] x[95] x[96] x[97]
 x[98] x[99] x[100] x[101] x[102] x[103] x[104] x[105] x[106] x[107] x[108]
 x[109] u[0] u[1] u[2] u[3] u[4] u[5] u[6] u[7] u[8] u[9] u[10] u[11] u[12]
 u[13] u[14] u[15] u[16] u[17] u[18] u[19] u[20] u[21] u[22] u[23] u[24]
 u[25] u[26] u[27] u[28] u[29] u[30] u[31] u[32] u[33] u[34] u[35] u[36]
 u[37] u[38] u[39] u[40] u[41] u[42] u[43] u[44] u[45] u[46] u[47] u[48]
 u[49] u[50] u[51] u[52] u[53] u[54] u[55] u[56] u[57] u[58] u[59] u[60]
 u[61] u[62] u[63] u[64] u[65] u[66] u[67] u[68] u[69] u[70] u[71] u[72]
 u[73] u[74] u[75] u[76] u[77] u[78] u[79] u[80] u[81] u[82] u[83] u[84]
 u[85] u[86] u[87] u[88] u[89] u[90] u[91] u[92] u[93] u[94] u[95] u[96]
 u[97] u[98] u[99] u[100] u[101] u[102] u[103] u[104] u[105] u[106] u[107]
 u[108] u[109] r[0] r[1] r[2] r[3] r[4] r[5] r[6] r[7] r[8] r[9] r[10]
 r[11] r[12] r[13] r[14] r[15] r[16] r[17] r[18] r[19] r[20] r[21] r[22]
 r[23] r[24] r[25] r[26] r[27] r[28] r[29] r[30] r[31] r[32] r[33] r[34]
 r[35] r[36] r[37] r[38] r[39] r[40] r[41] r[42] r[43] r[44] r[45] r[46]
 r[47] r[48] r[49] r[50] r[51] r[52] r[53] r[54] r[55] r[56] r[57] r[58]
 r[59] r[60] r[61] r[62] r[63] r[64] r[65] r[66] r[67] r[68] r[69] r[70]
 r[71] r[72] r[73] r[74] r[75] r[76] r[77] r[78] r[79] r[80] r[81] r[82]
 r[83] r[84] r[85] r[86] r[87] r[88] r[89] r[90] r[91] r[92] r[93] r[94]
 r[95] r[96] r[97] r[98] r[99] r[100] r[101] r[102] r[103] r[104] r[105]
 r[106] r[107] r[108] r[109]
End
