instances/knapsack/discrete_knapsack_uncertainty/knapsack_110_16.kp
55275
110
534

50 5.0 83
63 6.3 7
73 7.3 73
6 0.6 9
79 7.9 58
92 9.2 38
40 4.0 22
50 5.0 76
20 2.0 7
65 6.5 63
2 0.2 28
6 0.6 28
19 1.9 32
39 3.9 71
95 9.5 12
83 8.3 25
88 8.8 23
7 0.7 15
76 7.6 63
81 8.1 14
32 3.2 82
6 0.6 8
27 2.7 9
97 9.7 61
7 0.7 70
59 5.9 55
65 6.5 5
98 9.8 48
24 2.4 19
34 3.4 9
4 0.4 62
90 9.0 81
2 0.2 73
44 4.4 56
39 3.9 8
88 8.8 14
19 1.9 10
39 3.9 56
63 6.3 39
57 5.7 28
6 0.6 5
100 10.0 66
49 4.9 6
68 6.8 28
94 9.4 11
85 8.5 8
60 6.0 29
24 2.4 21
62 6.2 49
95 9.5 74
21 2.1 52
11 1.1 43
100 10.0 24
43 4.3 10
11 1.1 65
58 5.8 23
72 7.2 19
97 9.7 33
63 6.3 1
5 0.5 96
71 7.1 45
1 0.1 23
50 5.0 2
49 4.9 98
54 5.4 43
47 4.7 10
15 1.5 18
9 0.9 38
7 0.7 61
100 10.0 90
68 6.8 18
76 7.6 28
85 8.5 18
14 1.4 78
82 8.2 87
39 3.9 55
49 4.9 99
94 9.4 30
79 7.9 69
25 2.5 96
100 10.0 16
88 8.8 19
1 0.1 42
32 3.2 95
80 8.0 10
36 3.6 81
26 2.6 87
27 2.7 96
53 5.3 77
2 0.2 19
11 1.1 27
35 3.5 26
91 9.1 94
90 9.0 37
55 5.5 9
36 3.6 79
80 8.0 6
83 8.3 97
15 1.5 25
63 6.3 73
52 5.2 41
59 5.9 6
57 5.7 83
39 3.9 66
52 5.2 72
25 2.5 76
90 9.0 19
41 4.1 13
33 3.3 39
92 9.2 85

46154
542

[3.872109025076533 1.9699080236915658 3.854213072927504 3.9170676335451318 1.4503701620445781 1.243275888610804 2.000614601145735 0.4480942076690985 4.481120229555576 1.8253781363087214 2.3878346850683605 4.214460027164427 3.2041009170141423 2.3718748550516624 4.318728743097359 4.452762961528405 4.144844649872118 0.2436376998373839 0.8809056889204886 2.313774622883775 2.189806169087278 0.5661899984419083 2.341454886190586 4.46542521812326 2.637306070349821 0.8961437507829029 4.169151342241733 4.329589111577063 2.5933620349000766 3.5577029177331476 4.321995910128197 4.9105378020527635 3.797776731145662 3.7634993922525948 0.30936460349184325 1.459558368187938 0.5868833616999882 0.9583082305914691 4.044182486929259 3.0890367604165188 0.8483230470416471 0.9100828973139581 3.9977436806611992 4.658778682336703 4.05603085859971 0.1053606849784064 4.588145880101617 3.086071843091099 3.4475117082613713 1.2315499259188538 1.0204403941957931 1.2045810374151273 1.880329277736117 2.9896644150594787 0.19503980480983904 4.715037514959342 4.038905301206814 3.0165456801693478 0.7653502966341452 3.7335782870833385 2.2246958920935196 3.9729413958123483 3.8689088769937108 2.6932408553490452 1.2606709617565597 2.7604879838992686 2.5789844998784135 0.06733510519524666 3.5377241768816803 0.965534509551131 2.558500847892272 4.6152804293960425 0.09538406192315434 2.542435360239262 0.14163386076296497 0.45890999182363734 4.867678394803181 3.7140136700061706 0.588705140666117 1.3825116444450243 2.15834499818135 0.03867912458269171 1.6000710914667748 2.354472636750656 0.2396231545225822 3.029515510908737 4.921577764929439 3.79913589968564 3.7831513312943694 0.6136538736327234 3.4773118734420945 3.628891456594607 3.074474344143885 1.108105072854298 2.8918110056956725 1.3981635853330736 1.9364872049759232 3.4121641212412617 2.3870679103417594 0.06725504936919416 0.42299364228006164 3.553514402010681 3.116089422640405 3.2893375271484415 2.586846019973057 1.5596122916145734 3.018849848680716 2.2734822859095476 4.3199501907492825 3.9647963838515548]

[12 12 90 55 92 94 45 32 53 94 32 43 36 48 41 57 61 8 97 62 61 84 88 31 49 52 90 96 82 27 62 16 96 69 100 85 56 5 68 35 47 94 74 74 59 83 2 22 63 8 71 76 1 84 73 36 25 27 96 90 81 19 12 63 8 12 89 39 48 86 70 86 34 79 20 41 31 95 37 55 10 6 91 42 18 46 48 36 10 59 69 1 9 40 100 29 9 69 80 60 17 36 42 60 61 30 51 79 59 1]
